proyfinal/src/viki/013/experimentInOfficeAgust.take6.output/136d93a5-8f84-434f-aa82-a6490d2e06ef.als.dat
{'cnf.clauses': '118081',
 'cnf.totvars': '69608',
 'conflict literals': '1495',
 'conflicts': '188',
 'decisions': '3799',
 'memused.mb': '15.95',
 'outcome': 'UNSAT',
 'propagations': '284346',
 'restarts': '2',
 'solver.msecs': 39,
 'task.msecs': 89}
