proyfinal/src/viki/013/experimentInOfficeAgust.take6.output/136d93a5-8f84-434f-aa82-a6490d2e06ef.als.out
Reading from standard input... Use '--help' for help.
============================[ Problem Statistics ]=============================
|                                                                             |
|  Number of variables:         69608                                         |
|  Number of clauses:          118081                                         |
|  Parse time:                   0.02 s                                       |
|                                                                             |
============================[ Search Statistics ]==============================
| Conflicts |          ORIGINAL         |          LEARNT          | Progress |
|           |    Vars  Clauses Literals |    Limit  Clauses Lit/Cl |          |
===============================================================================
|       100 |   57145    83148   205908 |    30487       91      8 | 17.905 % |
===============================================================================
restarts              : 2
conflicts             : 188            (4761 /sec)
decisions             : 3799           (0.00 % random) (96204 /sec)
propagations          : 284346         (7200638 /sec)
conflict literals     : 1495           (29.75 % deleted)
Memory used           : 15.95 MB
CPU time              : 0.039489 s

UNSATISFIABLE
